\ Model mip_model
\ LP format - for model browsing. Use MPS format to capture full model detail.
Minimize
  w[0,0,0] + 2 w[0,0,1] + 3 w[0,0,2] + 4 w[0,0,3] + 5 w[0,0,4] + 6 w[0,0,5]
   + 7 w[0,0,6] + 8 w[0,0,7] + 9 w[0,0,8] + 10 w[0,0,9] + w[0,1,0]
   + 2 w[0,1,1] + 3 w[0,1,2] + 4 w[0,1,3] + 5 w[0,1,4] + 6 w[0,1,5]
   + 7 w[0,1,6] + 8 w[0,1,7] + 9 w[0,1,8] + 10 w[0,1,9] + w[0,2,0]
   + 2 w[0,2,1] + 3 w[0,2,2] + 4 w[0,2,3] + 5 w[0,2,4] + 6 w[0,2,5]
   + 7 w[0,2,6] + 8 w[0,2,7] + 9 w[0,2,8] + 10 w[0,2,9] + w[1,0,0]
   + 2 w[1,0,1] + 3 w[1,0,2] + 4 w[1,0,3] + 5 w[1,0,4] + 6 w[1,0,5]
   + 7 w[1,0,6] + 8 w[1,0,7] + 9 w[1,0,8] + 10 w[1,0,9] + w[1,1,0]
   + 2 w[1,1,1] + 3 w[1,1,2] + 4 w[1,1,3] + 5 w[1,1,4] + 6 w[1,1,5]
   + 7 w[1,1,6] + 8 w[1,1,7] + 9 w[1,1,8] + 10 w[1,1,9] + w[1,2,0]
   + 2 w[1,2,1] + 3 w[1,2,2] + 4 w[1,2,3] + 5 w[1,2,4] + 6 w[1,2,5]
   + 7 w[1,2,6] + 8 w[1,2,7] + 9 w[1,2,8] + 10 w[1,2,9]
Subject To
 R0: w[0,0,0] = 2
 R1: w[0,1,0] = 8
 R2: w[0,2,0] = 2
 R3: w[1,0,0] - c[0,0,0] - c[0,0,1] - c[0,0,2] - c[0,0,3] - c[0,0,4]
   - c[0,0,5] - c[0,0,6] - c[0,0,7] - c[0,0,8] - c[0,0,9] = 2
 R4: w[1,1,0] - c[0,0,0] - c[0,0,1] - c[0,0,2] - c[0,0,3] - c[0,0,4]
   - c[0,0,5] - c[0,0,6] - c[0,0,7] - c[0,0,8] - c[0,0,9] = 2
 R5: w[1,2,0] - c[0,1,0] - c[0,1,1] - c[0,1,2] - c[0,1,3] - c[0,1,4]
   - c[0,1,5] - c[0,1,6] - c[0,1,7] - c[0,1,8] - c[0,1,9] = 2
 R6: - w[0,0,0] + w[0,1,1] + c[0,0,0] = 0
 R7: - w[0,0,1] + w[0,1,2] + c[0,0,1] = 0
 R8: - w[0,0,2] + w[0,1,3] + c[0,0,2] = 0
 R9: - w[0,0,3] + w[0,1,4] + c[0,0,3] = 0
 R10: - w[0,0,4] + w[0,1,5] + c[0,0,4] = 0
 R11: - w[0,0,5] + w[0,1,6] + c[0,0,5] = 0
 R12: - w[0,0,6] + w[0,1,7] + c[0,0,6] = 0
 R13: - w[0,0,7] + w[0,1,8] + c[0,0,7] = 0
 R14: - w[0,0,8] + w[0,1,9] + c[0,0,8] = 0
 R15: - w[0,1,0] + w[0,2,1] + c[0,1,0] = 0
 R16: - w[0,1,1] + w[0,2,2] + c[0,1,1] = 0
 R17: - w[0,1,2] + w[0,2,3] + c[0,1,2] = 0
 R18: - w[0,1,3] + w[0,2,4] + c[0,1,3] = 0
 R19: - w[0,1,4] + w[0,2,5] + c[0,1,4] = 0
 R20: - w[0,1,5] + w[0,2,6] + c[0,1,5] = 0
 R21: - w[0,1,6] + w[0,2,7] + c[0,1,6] = 0
 R22: - w[0,1,7] + w[0,2,8] + c[0,1,7] = 0
 R23: - w[0,1,8] + w[0,2,9] + c[0,1,8] = 0
 R24: - w[1,0,0] + w[1,1,1] + c[1,0,0] = 0
 R25: - w[1,0,1] + w[1,1,2] + c[1,0,1] = 0
 R26: - w[1,0,2] + w[1,1,3] + c[1,0,2] = 0
 R27: - w[1,0,3] + w[1,1,4] + c[1,0,3] = 0
 R28: - w[1,0,4] + w[1,1,5] + c[1,0,4] = 0
 R29: - w[1,0,5] + w[1,1,6] + c[1,0,5] = 0
 R30: - w[1,0,6] + w[1,1,7] + c[1,0,6] = 0
 R31: - w[1,0,7] + w[1,1,8] + c[1,0,7] = 0
 R32: - w[1,0,8] + w[1,1,9] + c[1,0,8] = 0
 R33: - w[1,1,0] + w[1,2,1] + c[1,1,0] = 0
 R34: - w[1,1,1] + w[1,2,2] + c[1,1,1] = 0
 R35: - w[1,1,2] + w[1,2,3] + c[1,1,2] = 0
 R36: - w[1,1,3] + w[1,2,4] + c[1,1,3] = 0
 R37: - w[1,1,4] + w[1,2,5] + c[1,1,4] = 0
 R38: - w[1,1,5] + w[1,2,6] + c[1,1,5] = 0
 R39: - w[1,1,6] + w[1,2,7] + c[1,1,6] = 0
 R40: - w[1,1,7] + w[1,2,8] + c[1,1,7] = 0
 R41: - w[1,1,8] + w[1,2,9] + c[1,1,8] = 0
 R42: - w[0,0,0] + c[0,0,0] <= 0
 R43: - w[0,0,1] + c[0,0,1] <= 0
 R44: - w[0,0,2] + c[0,0,2] <= 0
 R45: - w[0,0,3] + c[0,0,3] <= 0
 R46: - w[0,0,4] + c[0,0,4] <= 0
 R47: - w[0,0,5] + c[0,0,5] <= 0
 R48: - w[0,0,6] + c[0,0,6] <= 0
 R49: - w[0,0,7] + c[0,0,7] <= 0
 R50: - w[0,0,8] + c[0,0,8] <= 0
 R51: - w[0,0,9] + c[0,0,9] <= 0
 R52: - w[0,1,0] + c[0,1,0] <= 0
 R53: - w[0,1,1] + c[0,1,1] <= 0
 R54: - w[0,1,2] + c[0,1,2] <= 0
 R55: - w[0,1,3] + c[0,1,3] <= 0
 R56: - w[0,1,4] + c[0,1,4] <= 0
 R57: - w[0,1,5] + c[0,1,5] <= 0
 R58: - w[0,1,6] + c[0,1,6] <= 0
 R59: - w[0,1,7] + c[0,1,7] <= 0
 R60: - w[0,1,8] + c[0,1,8] <= 0
 R61: - w[0,1,9] + c[0,1,9] <= 0
 R62: - w[0,2,0] + c[0,2,0] <= 0
 R63: - w[0,2,1] + c[0,2,1] <= 0
 R64: - w[0,2,2] + c[0,2,2] <= 0
 R65: - w[0,2,3] + c[0,2,3] <= 0
 R66: - w[0,2,4] + c[0,2,4] <= 0
 R67: - w[0,2,5] + c[0,2,5] <= 0
 R68: - w[0,2,6] + c[0,2,6] <= 0
 R69: - w[0,2,7] + c[0,2,7] <= 0
 R70: - w[0,2,8] + c[0,2,8] <= 0
 R71: - w[0,2,9] + c[0,2,9] <= 0
 R72: - w[1,0,0] + c[1,0,0] <= 0
 R73: - w[1,0,1] + c[1,0,1] <= 0
 R74: - w[1,0,2] + c[1,0,2] <= 0
 R75: - w[1,0,3] + c[1,0,3] <= 0
 R76: - w[1,0,4] + c[1,0,4] <= 0
 R77: - w[1,0,5] + c[1,0,5] <= 0
 R78: - w[1,0,6] + c[1,0,6] <= 0
 R79: - w[1,0,7] + c[1,0,7] <= 0
 R80: - w[1,0,8] + c[1,0,8] <= 0
 R81: - w[1,0,9] + c[1,0,9] <= 0
 R82: - w[1,1,0] + c[1,1,0] <= 0
 R83: - w[1,1,1] + c[1,1,1] <= 0
 R84: - w[1,1,2] + c[1,1,2] <= 0
 R85: - w[1,1,3] + c[1,1,3] <= 0
 R86: - w[1,1,4] + c[1,1,4] <= 0
 R87: - w[1,1,5] + c[1,1,5] <= 0
 R88: - w[1,1,6] + c[1,1,6] <= 0
 R89: - w[1,1,7] + c[1,1,7] <= 0
 R90: - w[1,1,8] + c[1,1,8] <= 0
 R91: - w[1,1,9] + c[1,1,9] <= 0
 R92: - w[1,2,0] + c[1,2,0] <= 0
 R93: - w[1,2,1] + c[1,2,1] <= 0
 R94: - w[1,2,2] + c[1,2,2] <= 0
 R95: - w[1,2,3] + c[1,2,3] <= 0
 R96: - w[1,2,4] + c[1,2,4] <= 0
 R97: - w[1,2,5] + c[1,2,5] <= 0
 R98: - w[1,2,6] + c[1,2,6] <= 0
 R99: - w[1,2,7] + c[1,2,7] <= 0
 R100: - w[1,2,8] + c[1,2,8] <= 0
 R101: - w[1,2,9] + c[1,2,9] <= 0
 R102: c[0,0,0] <= 2
 R103: c[0,0,1] <= 2
 R104: c[0,0,2] <= 2
 R105: c[0,0,3] <= 2
 R106: c[0,0,4] <= 2
 R107: c[0,0,5] <= 2
 R108: c[0,0,6] <= 2
 R109: c[0,0,7] <= 2
 R110: c[0,0,8] <= 2
 R111: c[0,0,9] <= 2
 R112: c[0,1,0] <= 2
 R113: c[0,1,1] <= 2
 R114: c[0,1,2] <= 2
 R115: c[0,1,3] <= 2
 R116: c[0,1,4] <= 2
 R117: c[0,1,5] <= 2
 R118: c[0,1,6] <= 2
 R119: c[0,1,7] <= 2
 R120: c[0,1,8] <= 2
 R121: c[0,1,9] <= 2
 R122: c[0,2,0] <= 2
 R123: c[0,2,1] <= 2
 R124: c[0,2,2] <= 2
 R125: c[0,2,3] <= 2
 R126: c[0,2,4] <= 2
 R127: c[0,2,5] <= 2
 R128: c[0,2,6] <= 2
 R129: c[0,2,7] <= 2
 R130: c[0,2,8] <= 2
 R131: c[0,2,9] <= 2
 R132: c[1,0,0] <= 2
 R133: c[1,0,1] <= 2
 R134: c[1,0,2] <= 2
 R135: c[1,0,3] <= 2
 R136: c[1,0,4] <= 2
 R137: c[1,0,5] <= 2
 R138: c[1,0,6] <= 2
 R139: c[1,0,7] <= 2
 R140: c[1,0,8] <= 2
 R141: c[1,0,9] <= 2
 R142: c[1,1,0] <= 2
 R143: c[1,1,1] <= 2
 R144: c[1,1,2] <= 2
 R145: c[1,1,3] <= 2
 R146: c[1,1,4] <= 2
 R147: c[1,1,5] <= 2
 R148: c[1,1,6] <= 2
 R149: c[1,1,7] <= 2
 R150: c[1,1,8] <= 2
 R151: c[1,1,9] <= 2
 R152: c[1,2,0] <= 2
 R153: c[1,2,1] <= 2
 R154: c[1,2,2] <= 2
 R155: c[1,2,3] <= 2
 R156: c[1,2,4] <= 2
 R157: c[1,2,5] <= 2
 R158: c[1,2,6] <= 2
 R159: c[1,2,7] <= 2
 R160: c[1,2,8] <= 2
 R161: c[1,2,9] <= 2
Bounds
Generals
 c[0,0,0] c[0,0,1] c[0,0,2] c[0,0,3] c[0,0,4] c[0,0,5] c[0,0,6] c[0,0,7]
 c[0,0,8] c[0,0,9] c[0,1,0] c[0,1,1] c[0,1,2] c[0,1,3] c[0,1,4] c[0,1,5]
 c[0,1,6] c[0,1,7] c[0,1,8] c[0,1,9] c[0,2,0] c[0,2,1] c[0,2,2] c[0,2,3]
 c[0,2,4] c[0,2,5] c[0,2,6] c[0,2,7] c[0,2,8] c[0,2,9] c[1,0,0] c[1,0,1]
 c[1,0,2] c[1,0,3] c[1,0,4] c[1,0,5] c[1,0,6] c[1,0,7] c[1,0,8] c[1,0,9]
 c[1,1,0] c[1,1,1] c[1,1,2] c[1,1,3] c[1,1,4] c[1,1,5] c[1,1,6] c[1,1,7]
 c[1,1,8] c[1,1,9] c[1,2,0] c[1,2,1] c[1,2,2] c[1,2,3] c[1,2,4] c[1,2,5]
 c[1,2,6] c[1,2,7] c[1,2,8] c[1,2,9]
End
